50
    1     1    15
    2   210   264
    3    87    74
    4   259   295
    5   106   148
    6     1    37
    7    15    29
    8   349   343
    9   108    61
   10   221   278
   11   506   555
   12   344   383
   13    63   116
   14   439   384
   15   380   428
   16   351   328
   17   276   325
   18   539   540
   19   140    89
   20   557   530
   21   471   453
   22   342   323
   23   471   476
   24   364   354
   25   281   340
   26   352   316
   27   289   258
   28   161   155
   29   205   253
   30   418   395
   31   192   193
   32   110    63
   33   323   267
   34   496   513
   35   592   548
   36   359   413
   37   568   524
   38   230   248
   39   531   500
   40   421   434
   41    45    23
   42   590   557
   43   160   206
   44   148   145
   45   505   535
   46   236   294
   47   368   313
   48    37    29
   49   486   495
   50   468   452
601
